
n_res = 6;
rcap = [47, 41, 47, 48, 683, 679];
rtype = [1, 1, 1, 1, 2, 2];
n_tasks = 50;
modes =  [{1, 2, 3, 4, 5, 6}, {7, 8, 9, 10, 11, 12}, {13, 14, 15, 16, 17, 18}, {19, 20, 21, 22, 23, 24}, {25, 26, 27, 28, 29, 30}, {31, 32, 33, 34, 35, 36}, {37, 38, 39, 40, 41, 42}, {43, 44, 45, 46, 47, 48}, {49, 50, 51, 52, 53, 54}, {55, 56, 57, 58, 59, 60}, {61, 62, 63, 64, 65, 66}, {67, 68, 69, 70, 71, 72}, {73, 74, 75, 76, 77, 78}, {79, 80, 81, 82, 83, 84}, {85, 86, 87, 88, 89, 90}, {91, 92, 93, 94, 95, 96}, {97, 98, 99, 100, 101, 102}, {103, 104, 105, 106, 107, 108}, {109, 110, 111, 112, 113, 114}, {115, 116, 117, 118, 119, 120}, {121, 122, 123, 124, 125, 126}, {127, 128, 129, 130, 131, 132}, {133, 134, 135, 136, 137, 138}, {139, 140, 141, 142, 143, 144}, {145, 146, 147, 148, 149, 150}, {151, 152, 153, 154, 155, 156}, {157, 158, 159, 160, 161, 162}, {163, 164, 165, 166, 167, 168}, {169, 170, 171, 172, 173, 174}, {175, 176, 177, 178, 179, 180}, {181, 182, 183, 184, 185, 186}, {187, 188, 189, 190, 191, 192}, {193, 194, 195, 196, 197, 198}, {199, 200, 201, 202, 203, 204}, {205, 206, 207, 208, 209, 210}, {211, 212, 213, 214, 215, 216}, {217, 218, 219, 220, 221, 222}, {223, 224, 225, 226, 227, 228}, {229, 230, 231, 232, 233, 234}, {235, 236, 237, 238, 239, 240}, {241, 242, 243, 244, 245, 246}, {247, 248, 249, 250, 251, 252}, {253, 254, 255, 256, 257, 258}, {259, 260, 261, 262, 263, 264}, {265, 266, 267, 268, 269, 270}, {271, 272, 273, 274, 275, 276}, {277, 278, 279, 280, 281, 282}, {283, 284, 285, 286, 287, 288}, {289, 290, 291, 292, 293, 294}, {295, 296, 297, 298, 299, 300}];
succ =  [{49, 37, 34, 31, 26, 24, 23, 22, 19, 18, 13}, {48, 46, 37, 36, 34, 33, 29, 19, 18, 15}, {49, 43, 32, 27, 26, 21, 18, 8}, {50, 48, 37, 36, 35, 28, 26, 14, 13}, {50, 49, 48, 37, 34, 30, 27, 17, 13}, {49, 45, 31, 18, 13, 10}, {47, 46, 42, 37, 36, 35, 31, 29, 28, 26, 21}, {50, 48, 47, 46, 45, 44, 42, 41, 35, 29, 28}, {48, 44, 35, 29, 26, 18}, {44, 42, 41, 40, 37, 35, 30}, {46, 43, 41, 35, 28, 26}, {50, 49, 47, 45, 44, 43, 42, 39}, {47, 46, 43, 42, 40, 29}, {47, 46, 44, 41, 39, 31}, {49, 45, 43, 42, 35, 30}, {48, 47, 43, 41, 40, 35}, {45, 42, 41, 39, 36}, {42, 41, 39, 28}, {44, 42, 41, 28}, {40, 36, 35, 30}, {45, 44, 41, 40, 38}, {43, 42, 40, 36}, {48, 36, 35}, {44, 41, 40, 38}, {46, 44, 39, 38}, {45, 39, 38}, {46, 39, 38}, {40, 38}, {39, 38}, {39, 38}, {40, 38}, {48, 38}, {43, 40}, {35}, {39}, {38}, {43}, {}, {}, {}, {}, {}, {}, {}, {}, {}, {}, {}, {}, {}];
n_opt = 300;
dur = [1, 7, 9, 10, 11, 13, 1, 6, 17, 21, 25, 26, 4, 5, 6, 7, 11, 19, 15, 21, 22, 23, 24, 30, 6, 7, 22, 23, 25, 26, 3, 4, 5, 17, 25, 26, 5, 8, 9, 13, 25, 28, 7, 8, 11, 16, 22, 25, 7, 8, 11, 17, 20, 27, 9, 9, 10, 11, 25, 29, 3, 5, 7, 12, 14, 29, 3, 4, 11, 16, 22, 30, 3, 6, 12, 17, 22, 25, 9, 10, 11, 21, 28, 29, 14, 15, 16, 17, 18, 30, 7, 8, 13, 17, 19, 24, 4, 20, 22, 23, 25, 26, 1, 4, 6, 14, 28, 29, 7, 16, 18, 22, 24, 29, 3, 4, 10, 23, 24, 27, 2, 3, 17, 26, 27, 29, 3, 9, 12, 14, 19, 28, 5, 8, 15, 16, 24, 25, 7, 9, 14, 22, 24, 25, 2, 9, 17, 18, 20, 26, 2, 6, 14, 17, 18, 27, 2, 3, 19, 25, 26, 30, 3, 7, 14, 18, 19, 28, 7, 19, 20, 21, 24, 30, 7, 11, 12, 23, 25, 27, 3, 13, 21, 22, 23, 27, 11, 13, 14, 16, 19, 24, 1, 3, 14, 15, 18, 21, 1, 12, 13, 16, 21, 28, 6, 9, 12, 22, 24, 29, 5, 6, 7, 18, 20, 30, 5, 6, 18, 20, 21, 29, 7, 21, 24, 28, 29, 30, 2, 18, 23, 24, 27, 28, 6, 7, 16, 23, 27, 29, 4, 12, 14, 15, 17, 19, 7, 9, 12, 16, 20, 30, 3, 5, 21, 25, 27, 28, 1, 2, 7, 15, 26, 30, 1, 7, 9, 11, 14, 27, 2, 5, 9, 11, 13, 22, 4, 10, 11, 15, 18, 27, 4, 10, 11, 21, 22, 27, 12, 13, 21, 24, 25, 29, 10, 13, 18, 19, 26, 30];
rreq = [|3, 2, 2, 1, 1, 1, 2, 2, 2, 2, 1, 1, 5, 4, 3, 3, 3, 2, 3, 3, 3, 3, 3, 3, 3, 3, 3, 2, 1, 1, 3, 2, 2, 2, 1, 1, 4, 4, 4, 4, 4, 4, 5, 4, 4, 3, 3, 3, 5, 4, 4, 4, 4, 4, 3, 2, 2, 1, 1, 1, 4, 4, 4, 3, 3, 3, 3, 2, 2, 2, 1, 1, 4, 3, 3, 3, 3, 3, 3, 3, 3, 3, 3, 3, 3, 2, 2, 2, 2, 2, 5, 5, 5, 5, 5, 5, 2, 2, 2, 2, 2, 2, 3, 3, 3, 3, 3, 3, 1, 1, 1, 1, 1, 1, 5, 4, 4, 3, 3, 3, 3, 3, 3, 3, 3, 3, 3, 3, 3, 3, 3, 3, 3, 2, 2, 2, 2, 2, 2, 2, 2, 1, 1, 1, 4, 4, 3, 2, 1, 1, 2, 2, 2, 2, 2, 2, 2, 2, 2, 2, 2, 2, 4, 4, 4, 3, 3, 2, 3, 3, 3, 3, 2, 2, 4, 3, 2, 2, 1, 1, 4, 4, 4, 4, 4, 4, 2, 2, 2, 2, 1, 1, 5, 4, 3, 3, 3, 2, 3, 2, 2, 1, 1, 1, 4, 3, 3, 3, 2, 2, 5, 4, 4, 3, 3, 2, 4, 3, 3, 3, 3, 3, 3, 3, 3, 2, 2, 1, 4, 4, 4, 4, 4, 4, 3, 3, 3, 3, 3, 3, 4, 4, 4, 3, 2, 2, 4, 4, 3, 3, 3, 2, 5, 3, 3, 3, 2, 1, 3, 2, 2, 1, 1, 1, 5, 3, 3, 2, 1, 1, 3, 2, 2, 2, 2, 2, 5, 4, 3, 3, 3, 2, 3, 2, 2, 1, 1, 1, 2, 2, 2, 2, 2, 2, 3, 3, 3, 2, 1, 1
 |4, 4, 4, 4, 3, 3, 4, 3, 2, 2, 1, 1, 1, 1, 1, 1, 1, 1, 4, 3, 3, 3, 3, 3, 5, 5, 5, 5, 5, 5, 5, 4, 4, 3, 3, 2, 4, 4, 4, 4, 4, 4, 4, 3, 3, 3, 2, 2, 2, 1, 1, 1, 1, 1, 2, 2, 2, 2, 1, 1, 1, 1, 1, 1, 1, 1, 4, 3, 3, 2, 2, 1, 4, 3, 3, 3, 3, 3, 4, 4, 4, 4, 4, 4, 3, 3, 2, 2, 1, 1, 4, 4, 4, 4, 4, 4, 4, 4, 4, 4, 4, 4, 5, 4, 4, 4, 4, 4, 2, 2, 2, 2, 2, 2, 3, 2, 2, 2, 2, 2, 4, 4, 4, 4, 3, 3, 3, 3, 3, 3, 3, 3, 2, 2, 2, 2, 2, 2, 3, 3, 3, 3, 3, 3, 3, 3, 3, 3, 3, 3, 1, 1, 1, 1, 1, 1, 5, 3, 3, 2, 2, 1, 1, 1, 1, 1, 1, 1, 4, 3, 3, 2, 2, 2, 2, 1, 1, 1, 1, 1, 2, 2, 2, 2, 2, 2, 4, 3, 3, 2, 2, 1, 5, 4, 3, 3, 2, 2, 3, 3, 3, 3, 3, 3, 4, 3, 3, 3, 3, 3, 2, 2, 2, 1, 1, 1, 4, 3, 3, 2, 2, 2, 2, 2, 2, 2, 1, 1, 5, 4, 3, 3, 1, 1, 1, 1, 1, 1, 1, 1, 3, 3, 3, 2, 1, 1, 2, 2, 2, 1, 1, 1, 4, 4, 4, 3, 3, 2, 4, 3, 2, 2, 2, 1, 3, 2, 2, 1, 1, 1, 2, 2, 2, 2, 2, 2, 3, 3, 3, 3, 3, 3, 3, 3, 3, 2, 2, 2, 4, 4, 4, 3, 3, 3, 2, 2, 2, 1, 1, 1
 |5, 4, 4, 4, 3, 3, 1, 1, 1, 1, 1, 1, 5, 4, 3, 3, 3, 2, 4, 3, 3, 2, 2, 2, 4, 3, 3, 2, 2, 2, 4, 3, 3, 2, 2, 1, 5, 4, 3, 2, 1, 1, 4, 4, 4, 4, 4, 4, 4, 4, 4, 4, 3, 3, 3, 2, 2, 2, 2, 2, 3, 2, 2, 2, 2, 2, 2, 1, 1, 1, 1, 1, 5, 4, 3, 2, 2, 1, 3, 3, 3, 3, 3, 3, 5, 4, 3, 3, 3, 2, 3, 2, 2, 2, 1, 1, 4, 4, 4, 4, 3, 3, 4, 3, 3, 3, 3, 3, 3, 3, 3, 3, 2, 2, 4, 4, 4, 4, 4, 4, 4, 4, 4, 4, 3, 3, 4, 4, 3, 3, 1, 1, 2, 2, 2, 2, 2, 2, 3, 3, 3, 3, 3, 3, 3, 3, 3, 2, 1, 1, 5, 5, 5, 5, 5, 5, 1, 1, 1, 1, 1, 1, 4, 3, 3, 3, 3, 3, 3, 3, 3, 3, 3, 3, 4, 4, 4, 3, 3, 3, 5, 5, 5, 5, 5, 5, 4, 4, 4, 4, 4, 4, 4, 4, 4, 4, 4, 4, 2, 2, 2, 2, 2, 2, 4, 4, 4, 4, 4, 4, 2, 2, 2, 2, 2, 2, 3, 2, 2, 2, 2, 2, 5, 5, 5, 5, 5, 5, 4, 4, 4, 4, 4, 4, 4, 4, 4, 3, 3, 2, 3, 3, 3, 3, 3, 3, 4, 3, 2, 2, 2, 1, 5, 4, 4, 4, 4, 4, 3, 2, 2, 2, 2, 2, 5, 4, 4, 4, 4, 4, 5, 4, 4, 4, 3, 3, 1, 1, 1, 1, 1, 1, 3, 3, 2, 2, 1, 1, 4, 3, 2, 2, 1, 1, 4, 4, 3, 3, 3, 2
 |5, 4, 4, 3, 3, 3, 5, 3, 3, 3, 1, 1, 1, 1, 1, 1, 1, 1, 2, 2, 2, 2, 1, 1, 5, 5, 5, 5, 5, 5, 3, 3, 3, 3, 3, 3, 4, 4, 4, 4, 4, 4, 4, 3, 3, 2, 2, 2, 5, 3, 3, 2, 1, 1, 4, 3, 3, 3, 2, 2, 5, 5, 5, 5, 5, 5, 3, 2, 2, 2, 1, 1, 2, 2, 2, 2, 1, 1, 4, 3, 3, 3, 2, 2, 5, 4, 4, 3, 3, 2, 4, 4, 4, 3, 3, 3, 5, 4, 4, 3, 3, 3, 5, 4, 4, 4, 4, 4, 4, 4, 3, 3, 3, 2, 2, 2, 2, 2, 1, 1, 4, 4, 4, 4, 4, 4, 3, 3, 3, 3, 3, 3, 4, 3, 3, 3, 1, 1, 5, 3, 3, 2, 2, 1, 4, 4, 3, 3, 2, 2, 4, 3, 3, 3, 2, 2, 4, 3, 3, 2, 2, 2, 3, 3, 3, 2, 2, 2, 2, 2, 2, 2, 1, 1, 3, 3, 2, 2, 1, 1, 3, 3, 3, 3, 3, 3, 4, 4, 4, 4, 4, 4, 4, 4, 4, 4, 4, 4, 4, 4, 4, 3, 2, 2, 3, 2, 2, 2, 2, 2, 5, 5, 5, 5, 5, 5, 5, 3, 3, 2, 2, 1, 4, 3, 3, 3, 2, 2, 1, 1, 1, 1, 1, 1, 3, 3, 3, 3, 3, 3, 5, 4, 4, 3, 3, 3, 2, 1, 1, 1, 1, 1, 4, 3, 3, 3, 3, 3, 5, 5, 5, 5, 5, 5, 3, 3, 3, 2, 1, 1, 4, 4, 4, 3, 2, 2, 3, 3, 3, 3, 3, 3, 4, 3, 3, 2, 2, 2, 3, 3, 3, 3, 2, 2, 4, 4, 4, 4, 4, 4
 |29, 29, 29, 29, 29, 29, 26, 20, 20, 16, 12, 10, 24, 22, 20, 17, 14, 13, 26, 24, 23, 22, 21, 21, 9, 9, 9, 8, 8, 8, 28, 23, 21, 18, 15, 10, 12, 10, 10, 7, 6, 3, 25, 20, 17, 12, 8, 3, 25, 18, 15, 14, 11, 7, 10, 10, 10, 10, 10, 10, 6, 5, 4, 3, 3, 2, 20, 19, 16, 10, 9, 5, 8, 8, 8, 8, 8, 8, 5, 5, 5, 5, 5, 5, 9, 7, 7, 7, 6, 5, 29, 24, 20, 12, 11, 2, 23, 19, 15, 15, 13, 9, 25, 23, 20, 16, 13, 10, 23, 22, 20, 19, 18, 17, 22, 22, 22, 22, 22, 22, 14, 13, 13, 13, 13, 13, 27, 27, 25, 25, 24, 22, 8, 8, 8, 8, 8, 8, 24, 20, 16, 14, 11, 5, 7, 6, 5, 3, 2, 2, 21, 18, 18, 16, 13, 13, 22, 21, 21, 21, 20, 20, 29, 29, 28, 27, 26, 26, 23, 20, 14, 14, 9, 1, 25, 22, 22, 19, 18, 16, 22, 21, 20, 19, 19, 17, 22, 20, 20, 17, 15, 15, 21, 21, 14, 9, 8, 5, 28, 26, 25, 25, 24, 23, 28, 28, 28, 28, 28, 28, 14, 14, 11, 10, 9, 8, 20, 17, 17, 16, 14, 12, 23, 22, 19, 17, 16, 14, 18, 16, 16, 13, 11, 10, 24, 24, 23, 23, 23, 22, 20, 18, 18, 17, 17, 16, 24, 22, 19, 18, 13, 9, 12, 11, 9, 5, 3, 1, 7, 7, 6, 6, 5, 5, 18, 17, 16, 16, 14, 14, 9, 6, 6, 4, 4, 2, 28, 26, 26, 26, 25, 24, 9, 9, 9, 9, 9, 9, 15, 14, 11, 10, 9, 7, 26, 25, 24, 23, 21, 21
 |19, 18, 16, 13, 11, 9, 21, 21, 21, 21, 21, 21, 25, 25, 23, 21, 19, 16, 20, 18, 15, 9, 6, 5, 25, 22, 19, 16, 15, 11, 22, 21, 16, 14, 10, 7, 26, 25, 21, 18, 18, 15, 20, 18, 16, 14, 10, 8, 18, 17, 15, 11, 10, 9, 12, 13, 12, 12, 12, 11, 22, 22, 21, 21, 20, 20, 11, 10, 10, 10, 10, 10, 9, 8, 8, 7, 5, 5, 22, 22, 18, 17, 15, 14, 19, 15, 12, 12, 8, 6, 30, 29, 28, 26, 26, 25, 19, 18, 14, 12, 9, 6, 18, 16, 15, 9, 8, 4, 21, 20, 19, 19, 18, 17, 21, 21, 18, 17, 13, 12, 19, 19, 14, 12, 6, 5, 8, 7, 6, 5, 5, 4, 21, 18, 17, 11, 8, 7, 15, 15, 14, 12, 11, 10, 27, 25, 22, 20, 20, 16, 27, 27, 23, 21, 21, 17, 18, 18, 17, 16, 14, 14, 20, 19, 18, 16, 16, 15, 17, 17, 14, 11, 10, 7, 15, 12, 10, 8, 6, 6, 29, 27, 27, 25, 24, 23, 15, 12, 11, 10, 9, 8, 18, 18, 18, 18, 18, 18, 20, 18, 17, 15, 13, 12, 13, 12, 11, 10, 11, 10, 28, 23, 19, 14, 12, 8, 25, 24, 21, 13, 11, 7, 25, 25, 23, 22, 21, 20, 14, 10, 10, 7, 7, 5, 19, 18, 17, 16, 15, 15, 25, 21, 20, 16, 14, 13, 26, 24, 19, 16, 16, 10, 28, 24, 18, 15, 9, 9, 22, 22, 21, 20, 18, 17, 13, 13, 12, 11, 9, 8, 27, 24, 20, 20, 15, 13, 24, 20, 18, 13, 8, 5, 25, 23, 19, 18, 13, 12, 19, 14, 14, 9, 8, 6, 22, 21, 16, 16, 10, 9|];